/* Objective function */
min: +41 C1 +27 C2 +28 C3 +24 C4 +40 C6 +29 C7 +1000 C8 +23 C9 +37 C11 +30 C12 +27 C13 +21 C14;

/* Constraints */
+C1 +C2 +C3 +C4 +C5 = 75;
+C6 +C7 +C8 +C9 +C10 = 75;
+C11 +C12 +C13 +C14 +C15 = 45;
+C1 +C6 +C11 = 20;
+C2 +C7 +C12 = 30;
+C3 +C8 +C13 = 30;
+C4 +C9 +C14 = 40;
+C5 +C10 +C15 = 75;
